p cnf 85 2
-4 -21 -83 -5 -17 -71 -8 -55 -10 -46 -51 -38 -23 1 2 3 4 5 7 8 10 11 12 13 15 16 17 18 19 21 22 23 24 25 26 27 28 29 30 31 32 33 34 36 37 38 39 40 41 42 43 44 45 46 47 48 49 50 51 53 54 55 57 58 60 61 62 63 64 66 69 71 73 74 75 76 77 78 79 80 81 82 83 84 0
-51 -76 -39 -33 -43 -57 -21 -28 -5 -16 -82 -63 -32 -62 -12 -77 1 5 8 12 16 18 21 24 26 27 28 30 31 32 33 38 39 42 43 46 49 51 57 61 62 63 68 69 70 71 72 74 75 76 77 82 0
